; chc-comp19-benchmarks/./lra-ts/chc-lra-ts-0100_000.smt2
(set-logic HORN)

(declare-fun |invariant| ( Real Bool Real Real Bool Bool Real Real Real Real Real Real Real Real Real Real Bool Real ) Bool)

(assert
  (forall ( (A Real) (B Real) (C Real) (D Real) (E Bool) (F Real) (G Real) (H Real) (I Bool) (J Real) (K Real) (L Real) (M Real) (N Bool) (O Real) (P Real) (Q Real) (R Bool) ) 
    (=>
      (and
        (and (= L 0.0)
     (= K (- 1.0))
     (= H 0.0)
     (= G 0.0)
     (= F (- 1.0))
     (= C 0.0)
     (= B 0.0)
     (= A 0.0)
     (not (<= 20.0 J))
     (not (<= 20.0 D))
     (<= 0.0 J)
     (<= 0.0 D)
     (<= O (+ 10.0 J))
     (not (<= O J))
     (<= M (+ 10.0 D))
     (not (<= M D))
     (or (= Q 0.0) (= Q 1.0) (= Q 2.0))
     (or (= L 0.0) (= L 1.0) (= L 2.0))
     (or (= B 0.0) (= B 1.0) (= B 2.0))
     (or (= A 0.0) (= A 1.0) (= A 2.0))
     (or (= G 0.0) (= G 1.0))
     (not N)
     (not I)
     (not E)
     (= P 0.0))
      )
      (invariant C E B L I N Q A G P D J M O F K R H)
    )
  )
)
(assert
  (forall ( (A Real) (B Bool) (C Real) (D Real) (E Bool) (F Bool) (G Real) (H Real) (I Real) (J Real) (K Real) (L Real) (M Real) (N Real) (O Real) (P Real) (Q Bool) (R Real) (S Real) (T Real) (U Real) (V Real) (W Real) (X Bool) (Y Bool) (Z Real) (A1 Bool) (B1 Real) (C1 Real) (D1 Real) (E1 Real) (F1 Real) (G1 Bool) (H1 Real) (I1 Real) (J1 Real) ) 
    (=>
      (and
        (invariant A B C D E F G H I J K L M N O P Q R)
        (let ((a!1 (and (or B (not Q) (not (= G 1.0)) (not (= O (- 1.0))))
                (= W O)
                (= X B)))
      (a!2 (or (and (= S 0.0) (= T 0.0) (= U 0.0) (not (= G 1.0)) (= H 0.0))
               (and (= S 0.0) (= T 2.0) (= U 0.0) (= G 2.0) (= H 1.0))
               (and (= S 0.0) (= T 2.0) (= U 0.0) (= G 2.0) (= H 2.0))
               (and (= S 1.0) (= T 1.0) (= U 0.0) (= G 1.0) (= H 0.0))
               (and (= S 2.0) (= T 0.0) (= U 0.0) (not (= G 2.0)) (= H 2.0))
               (and F (= S 2.0) (= T 0.0) (= U 0.0) (not (= G 2.0)) (= H 1.0))
               (and (not F)
                    (<= 1.0 A)
                    (= S 0.0)
                    (= T 2.0)
                    (= U 0.0)
                    (not (= G 2.0))
                    (= H 1.0))
               (and (not F)
                    (not (<= 1.0 A))
                    (= S 1.0)
                    (= T 1.0)
                    (= U (+ 1.0 A))
                    (not (= G 2.0))
                    (= H 1.0))))
      (a!4 (and (or (not B) (<= R 0.0) (not (= P (- 1.0)))) (= D1 P)))
      (a!6 (or (and (not A1) (= Z 0.0) (= B1 0.0) (not (= D 1.0)) (= I 0.0))
               (and (not A1) (= Z 0.0) (= B1 0.0) (= D 2.0) (= I 1.0))
               (and A1
                    (not (<= B1 0.0))
                    (not (<= 5.0 B1))
                    (= Z 1.0)
                    (= D 1.0)
                    (= I 0.0))
               (and A1
                    (not (<= B1 0.0))
                    (not (<= 5.0 B1))
                    (= Z 1.0)
                    (not (= D 2.0))
                    (= I 1.0)))))
(let ((a!3 (and (or a!1
                    (and (not B) Q X (not Y) (= G 1.0) (= O (- 1.0)) (= W J)))
                a!2
                (<= V (+ 20.0 J))
                (<= J (+ (- 20.0) V))
                (= Z I)
                (= B1 R)
                (= C1 L)
                (= D1 P)
                (= E1 D)
                (= H1 N)
                (= J K)
                (= F1 M)
                (= A1 E)
                (= G1 F)))
      (a!5 (or a!4 (and B (not (<= R 0.0)) (= D1 J) (= P (- 1.0))))))
(let ((a!7 (or a!3
               (and a!5
                    a!6
                    (<= C1 (+ 20.0 J))
                    (<= J (+ (- 20.0) C1))
                    (= S H)
                    (= T C)
                    (= U A)
                    (= V K)
                    (= E1 D)
                    (= H1 N)
                    (= J L)
                    (= W O)
                    (= F1 M)
                    (= X B)
                    (= Y Q)
                    (= G1 F))
               (and (not (<= H1 L))
                    (<= H1 (+ 10.0 L))
                    (= S H)
                    (= T C)
                    (= U A)
                    (= V K)
                    (= Z I)
                    (= B1 R)
                    (= C1 L)
                    (= D1 P)
                    (= E1 D)
                    (= J N)
                    (= W O)
                    (= F1 M)
                    (= A1 E)
                    (= X B)
                    (= Y Q)
                    (= G1 E))
               (and (not (<= F1 K))
                    (<= F1 (+ 10.0 K))
                    (= S H)
                    (= T C)
                    (= U A)
                    (= V K)
                    (= Z I)
                    (= B1 R)
                    (= C1 L)
                    (= D1 P)
                    (= E1 C)
                    (= H1 N)
                    (= J M)
                    (= W O)
                    (= A1 E)
                    (= X B)
                    (= Y Q)
                    (= G1 F)))))
(let ((a!8 (or (and a!7 (= I1 J))
               (and (or (= I1 K) (= I1 L) (= I1 M) (= I1 N))
                    (<= I1 K)
                    (<= I1 L)
                    (<= I1 M)
                    (<= I1 N)
                    (not (<= K J))
                    (not (<= L J))
                    (not (<= M J))
                    (not (<= N J))
                    (= S H)
                    (= T C)
                    (= U A)
                    (= V K)
                    (= Z I)
                    (= B1 R)
                    (= C1 L)
                    (= D1 P)
                    (= E1 D)
                    (= H1 N)
                    (= W O)
                    (= F1 M)
                    (= A1 E)
                    (= X B)
                    (= Y Q)
                    (= G1 F)))))
  (and (or (= H 0.0) (= H 1.0) (= H 2.0))
       (or (= G 0.0) (= G 1.0) (= G 2.0))
       (or (= D 0.0) (= D 1.0) (= D 2.0))
       (or (= C 0.0) (= C 1.0) (= C 2.0))
       (or (= E1 0.0) (= E1 1.0) (= E1 2.0))
       (or (= T 0.0) (= T 1.0) (= T 2.0))
       (or (= S 0.0) (= S 1.0) (= S 2.0))
       (or (= I 0.0) (= I 1.0))
       (or (= Z 0.0) (= Z 1.0))
       a!8
       (or (= J1 0.0) (= J1 1.0) (= J1 2.0)))))))
      )
      (invariant U X T E1 A1 G1 J1 S Z I1 V C1 F1 H1 W D1 Y B1)
    )
  )
)
(assert
  (forall ( (A Real) (B Bool) (C Real) (D Real) (E Bool) (F Bool) (G Real) (H Real) (I Real) (J Real) (K Real) (L Real) (M Real) (N Real) (O Real) (P Real) (Q Bool) (R Real) ) 
    (=>
      (and
        (invariant A B C D E F G H I J K L M N O P Q R)
        (<= O (+ (- 200.0) P))
      )
      false
    )
  )
)

(check-sat)
(exit)
